584 0 172 637 399
859 260 650 0 167
214 469 0 511 550
529 129 584 52 206
776 698 425 198 59
409 206 129 550 817
0 511 775 129 648
93 331 489 809 725
732 792 31 232 494
226 717 862 399 322
637 841 390 733 139
153 689 295 698 285
880 598 689 249 0
501 372 748 833 96
322 424 527 883 808
